data/CVRPLIB/Vrp-Set-XML100/instances/XML100_2312_11.vrp
NAME : XML100_2312_11
COMMENT : Generated by Queiroga, Sadykov, Uchoa, and Vidal (2021)
TYPE : CVRP
DIMENSION : 101
EDGE_WEIGHT_TYPE : EUC_2D
CAPACITY : 5
NODE_COORD_SECTION
1    500  500 
2    650  104 
3    631  432 
4    630  660 
5    357  422 
6    639  334 
7    958  965 
8    318  292 
9    791  486 
10   498  152 
11   21   631 
12   462  685 
13   342  115 
14   684  594 
15   673  921 
16   539  920 
17   584  768 
18   649  489 
19   665  352 
20   469  895 
21   733  397 
22   245  685 
23   931  729 
24   243  489 
25   306  443 
26   736  422 
27   562  937 
28   832  969 
29   614  910 
30   429  769 
31   550  221 
32   290  606 
33   645  13  
34   729  879 
35   563  341 
36   371  447 
37   730  340 
38   677  977 
39   880  804 
40   682  959 
41   583  340 
42   51   848 
43   476  842 
44   55   911 
45   707  688 
46   749  852 
47   297  941 
48   533  347 
49   685  195 
50   739  50  
51   879  396 
52   588  930 
53   576  954 
54   373  27  
55   739  375 
56   648  896 
57   620  401 
58   50   779 
59   539  192 
60   813  481 
61   715  363 
62   617  912 
63   745  415 
64   81   418 
65   288  351 
66   646  524 
67   917  281 
68   205  215 
69   625  870 
70   999  347 
71   792  859 
72   625  875 
73   501  606 
74   975  46  
75   772  169 
76   757  354 
77   168  330 
78   554  409 
79   497  432 
80   837  350 
81   91   119 
82   324  423 
83   613  863 
84   676  934 
85   710  747 
86   396  615 
87   262  479 
88   233  525 
89   686  348 
90   993  250 
91   518  798 
92   624  117 
93   646  315 
94   943  494 
95   190  434 
96   564  982 
97   830  982 
98   625  778 
99   798  880 
100  69   22  
101  868  751 
DEMAND_SECTION
1    0   
2    1   
3    1   
4    1   
5    1   
6    1   
7    1   
8    1   
9    1   
10   1   
11   1   
12   1   
13   1   
14   1   
15   1   
16   1   
17   1   
18   1   
19   1   
20   1   
21   1   
22   1   
23   1   
24   1   
25   1   
26   1   
27   1   
28   1   
29   1   
30   1   
31   1   
32   1   
33   1   
34   1   
35   1   
36   1   
37   1   
38   1   
39   1   
40   1   
41   1   
42   1   
43   1   
44   1   
45   1   
46   1   
47   1   
48   1   
49   1   
50   1   
51   1   
52   1   
53   1   
54   1   
55   1   
56   1   
57   1   
58   1   
59   1   
60   1   
61   1   
62   1   
63   1   
64   1   
65   1   
66   1   
67   1   
68   1   
69   1   
70   1   
71   1   
72   1   
73   1   
74   1   
75   1   
76   1   
77   1   
78   1   
79   1   
80   1   
81   1   
82   1   
83   1   
84   1   
85   1   
86   1   
87   1   
88   1   
89   1   
90   1   
91   1   
92   1   
93   1   
94   1   
95   1   
96   1   
97   1   
98   1   
99   1   
100  1   
101  1   
DEPOT_SECTION
1
-1
EOF
