data/CVRPLIB/Vrp-Set-XML100/solutions/XML100_2312_11.sol
Route #1: 14 83 39 37 55
Route #2: 30 58 9 53 12
Route #3: 60 36 75 54 20
Route #4: 91 1 32 49 48
Route #5: 56 18 88 92 5
Route #6: 7 67 99 80 76
Route #7: 74 73 89 69 66
Route #8: 15 26 95 52 51
Route #9: 10 57 41 43 46
Route #10: 82 28 61 71 68
Route #11: 77 40 34 47 78
Route #12: 22 6 96 27 33
Route #13: 79 50 93 59 8
Route #14: 72 11 21 31 85
Route #15: 100 38 98 70 45
Route #16: 29 19 42 90 16
Route #17: 86 23 94 63 87
Route #18: 13 44 84 97 3
Route #19: 65 17 25 62 2
Route #20: 35 24 81 64 4
Cost 19019
